NAME : traveling-santa-2018-prime-paths.29776.tour
COMMENT : Length = 29776
COMMENT : Found by LKH [Keld Helsgaun] Sun Jun 12 19:59:52 2022
TYPE : TOUR
DIMENSION : 100
TOUR_SECTION
1
37
96
60
53
88
74
56
78
36
14
79
16
86
34
48
72
71
10
98
100
99
25
87
70
24
15
44
26
7
68
4
11
38
67
13
61
55
45
82
76
33
66
35
31
12
89
73
52
2
58
93
77
54
21
41
97
18
92
29
17
40
65
32
80
28
81
94
20
62
30
84
50
22
5
91
19
23
69
46
64
8
49
39
95
47
85
75
27
57
9
51
63
43
6
90
59
83
3
42
-1
EOF
